false true true
presolving:
presolving (0 rounds: 0 fast, 0 medium, 0 exhaustive):
 0 deleted vars, 0 deleted constraints, 0 added constraints, 0 tightened bounds, 0 added holes, 0 changed sides, 0 changed coefficients
 0 implications, 0 cliques
presolved problem has 57 variables (57 bin, 0 int, 0 impl, 0 cont) and 48 constraints
     48 constraints of type <linear>
transformed objective value is always integral (scale: 1)
Presolving Time: 0.00

 time | node  | left  |LP iter|LP it/n|mem/heur|mdpt |vars |cons |rows |cuts |sepa|confs|strbr|  dualbound   | primalbound  |  gap   | compl. 
p 0.0s|     1 |     0 |     0 |     - |shiftand|   0 |  57 |  48 |  48 |   0 |  0 |   0 |   0 |      --      | 9.000000e+00 |    Inf | unknown
 time | node  | left  |LP iter|LP it/n|mem/heur|mdpt |vars |cons |rows |cuts |sepa|confs|strbr|  dualbound   | primalbound  |  gap   | compl. 
  0.0s|     1 |     0 |    33 |     - |  2129k |   0 | 464 |  48 |  48 |   0 |  0 |   0 |   0 | 1.000000e+00 | 9.000000e+00 | 800.00%| unknown
 time | node  | left  |LP iter|LP it/n|mem/heur|mdpt |vars |cons |rows |cuts |sepa|confs|strbr|  dualbound   | primalbound  |  gap   | compl. 
  2.1s|     1 |     0 |   451 |     - |  5658k |   0 |1616 |  48 |  48 |   0 |  0 |   0 |   0 | 8.000000e+00 | 9.000000e+00 |  12.50%| unknown
 time | node  | left  |LP iter|LP it/n|mem/heur|mdpt |vars |cons |rows |cuts |sepa|confs|strbr|  dualbound   | primalbound  |  gap   | compl. 
  2.2s|     1 |     2 |  1087 |     - |  5989k |   0 |1616 |  48 |  48 |   0 |  1 |   0 |   0 | 8.000000e+00 | 9.000000e+00 |  12.50%| unknown
 time | node  | left  |LP iter|LP it/n|mem/heur|mdpt |vars |cons |rows |cuts |sepa|confs|strbr|  dualbound   | primalbound  |  gap   | compl. 
  2.2s|     2 |     3 |  1121 |  34.0 |  6069k |   1 |1616 |  48 |  48 |   0 |  1 |   0 |   0 | 8.000000e+00 | 9.000000e+00 |  12.50%| unknown
 time | node  | left  |LP iter|LP it/n|mem/heur|mdpt |vars |cons |rows |cuts |sepa|confs|strbr|  dualbound   | primalbound  |  gap   | compl. 
  2.2s|     3 |     4 |  1139 |  26.0 |  6140k |   2 |1616 |  48 |  48 |   0 |  1 |   0 |   0 | 8.000000e+00 | 9.000000e+00 |  12.50%| unknown
 time | node  | left  |LP iter|LP it/n|mem/heur|mdpt |vars |cons |rows |cuts |sepa|confs|strbr|  dualbound   | primalbound  |  gap   | compl. 
  2.4s|     4 |     5 |  1703 | 205.3 |  6537k |   2 |1616 |  48 |  48 |   0 |  1 |   0 |   0 | 8.000000e+00 | 9.000000e+00 |  12.50%| unknown
 time | node  | left  |LP iter|LP it/n|mem/heur|mdpt |vars |cons |rows |cuts |sepa|confs|strbr|  dualbound   | primalbound  |  gap   | compl. 
  2.4s|     5 |     6 |  1742 | 163.8 |  6904k |   3 |1616 |  48 |  48 |   0 |  1 |   0 |   0 | 8.000000e+00 | 9.000000e+00 |  12.50%| unknown
 time | node  | left  |LP iter|LP it/n|mem/heur|mdpt |vars |cons |rows |cuts |sepa|confs|strbr|  dualbound   | primalbound  |  gap   | compl. 
  2.5s|     6 |     7 |  1770 | 136.6 |  6927k |   4 |1616 |  48 |  48 |   0 |  1 |   0 |   0 | 8.000000e+00 | 9.000000e+00 |  12.50%| unknown
 time | node  | left  |LP iter|LP it/n|mem/heur|mdpt |vars |cons |rows |cuts |sepa|confs|strbr|  dualbound   | primalbound  |  gap   | compl. 
  3.1s|     7 |     8 |  1862 | 129.2 |  7263k |   5 |1837 |  48 |  48 |   0 |  1 |   0 |   0 | 8.000000e+00 | 9.000000e+00 |  12.50%| unknown
 time | node  | left  |LP iter|LP it/n|mem/heur|mdpt |vars |cons |rows |cuts |sepa|confs|strbr|  dualbound   | primalbound  |  gap   | compl. 
  3.2s|     8 |     9 |  2022 | 133.6 |  7355k |   5 |1837 |  48 |  48 |   0 |  1 |   0 |   0 | 8.000000e+00 | 9.000000e+00 |  12.50%| unknown
 time | node  | left  |LP iter|LP it/n|mem/heur|mdpt |vars |cons |rows |cuts |sepa|confs|strbr|  dualbound   | primalbound  |  gap   | compl. 
  3.3s|     9 |    10 |  2310 | 152.9 |  7372k |   6 |1837 |  48 |  48 |   0 |  1 |   0 |   0 | 8.000000e+00 | 9.000000e+00 |  12.50%| unknown
 time | node  | left  |LP iter|LP it/n|mem/heur|mdpt |vars |cons |rows |cuts |sepa|confs|strbr|  dualbound   | primalbound  |  gap   | compl. 
  3.4s|    10 |    11 |  2335 | 138.7 |  7388k |   6 |1837 |  48 |  48 |   0 |  1 |   0 |   0 | 8.000000e+00 | 9.000000e+00 |  12.50%| unknown
 time | node  | left  |LP iter|LP it/n|mem/heur|mdpt |vars |cons |rows |cuts |sepa|confs|strbr|  dualbound   | primalbound  |  gap   | compl. 
  3.5s|    11 |    12 |  2599 | 151.2 |  7564k |   7 |1837 |  48 |  48 |   0 |  1 |   0 |   0 | 8.000000e+00 | 9.000000e+00 |  12.50%| unknown
 time | node  | left  |LP iter|LP it/n|mem/heur|mdpt |vars |cons |rows |cuts |sepa|confs|strbr|  dualbound   | primalbound  |  gap   | compl. 
  4.1s|    12 |    13 |  2728 | 149.2 |  7837k |   7 |1968 |  48 |  48 |   0 |  1 |   0 |   0 | 8.000000e+00 | 9.000000e+00 |  12.50%| unknown
 time | node  | left  |LP iter|LP it/n|mem/heur|mdpt |vars |cons |rows |cuts |sepa|confs|strbr|  dualbound   | primalbound  |  gap   | compl. 
  4.2s|    13 |    14 |  2931 | 153.7 |  7902k |   7 |1968 |  48 |  48 |   0 |  1 |   0 |   0 | 8.000000e+00 | 9.000000e+00 |  12.50%| unknown
 time | node  | left  |LP iter|LP it/n|mem/heur|mdpt |vars |cons |rows |cuts |sepa|confs|strbr|  dualbound   | primalbound  |  gap   | compl. 
  4.4s|    14 |    15 |  3197 | 162.3 |  7912k |   7 |1968 |  48 |  48 |   0 |  1 |   0 |   0 | 8.000000e+00 | 9.000000e+00 |  12.50%| unknown
 time | node  | left  |LP iter|LP it/n|mem/heur|mdpt |vars |cons |rows |cuts |sepa|confs|strbr|  dualbound   | primalbound  |  gap   | compl. 
  4.5s|    15 |    16 |  3319 | 159.4 |  7922k |   7 |1968 |  48 |  48 |   0 |  1 |   0 |   0 | 8.000000e+00 | 9.000000e+00 |  12.50%| unknown
 time | node  | left  |LP iter|LP it/n|mem/heur|mdpt |vars |cons |rows |cuts |sepa|confs|strbr|  dualbound   | primalbound  |  gap   | compl. 
  4.6s|    16 |    17 |  3511 | 161.6 |  8123k |   8 |1968 |  48 |  48 |   0 |  1 |   0 |   0 | 8.000000e+00 | 9.000000e+00 |  12.50%| unknown
 time | node  | left  |LP iter|LP it/n|mem/heur|mdpt |vars |cons |rows |cuts |sepa|confs|strbr|  dualbound   | primalbound  |  gap   | compl. 
  4.7s|    17 |    18 |  3667 | 161.2 |  8134k |   8 |1968 |  48 |  48 |   0 |  1 |   0 |   0 | 8.000000e+00 | 9.000000e+00 |  12.50%| unknown
 time | node  | left  |LP iter|LP it/n|mem/heur|mdpt |vars |cons |rows |cuts |sepa|confs|strbr|  dualbound   | primalbound  |  gap   | compl. 
  4.8s|    18 |    19 |  3891 | 164.9 |  8139k |   8 |1968 |  48 |  48 |   0 |  1 |   0 |   0 | 8.000000e+00 | 9.000000e+00 |  12.50%| unknown
 time | node  | left  |LP iter|LP it/n|mem/heur|mdpt |vars |cons |rows |cuts |sepa|confs|strbr|  dualbound   | primalbound  |  gap   | compl. 
  4.9s|    19 |    20 |  3928 | 157.8 |  8154k |   8 |1968 |  48 |  48 |   0 |  1 |   0 |   0 | 8.000000e+00 | 9.000000e+00 |  12.50%| unknown
 time | node  | left  |LP iter|LP it/n|mem/heur|mdpt |vars |cons |rows |cuts |sepa|confs|strbr|  dualbound   | primalbound  |  gap   | compl. 
  5.0s|    20 |    21 |  3937 | 150.0 |  8172k |   8 |1968 |  48 |  48 |   0 |  1 |   0 |   0 | 8.000000e+00 | 9.000000e+00 |  12.50%| unknown
 time | node  | left  |LP iter|LP it/n|mem/heur|mdpt |vars |cons |rows |cuts |sepa|confs|strbr|  dualbound   | primalbound  |  gap   | compl. 
  5.5s|    21 |    22 |  4049 | 148.1 |  9273k |   8 |2199 |  48 |  48 |   0 |  1 |   0 |   0 | 8.000000e+00 | 9.000000e+00 |  12.50%| unknown
 time | node  | left  |LP iter|LP it/n|mem/heur|mdpt |vars |cons |rows |cuts |sepa|confs|strbr|  dualbound   | primalbound  |  gap   | compl. 
  5.7s|    22 |    23 |  4077 | 142.4 |  9274k |   8 |2199 |  48 |  48 |   0 |  1 |   0 |   0 | 8.000000e+00 | 9.000000e+00 |  12.50%| unknown
 time | node  | left  |LP iter|LP it/n|mem/heur|mdpt |vars |cons |rows |cuts |sepa|confs|strbr|  dualbound   | primalbound  |  gap   | compl. 
r 5.9s|    23 |     0 |  4094 | 136.7 |simplero|   9 |2199 |  48 |  48 |   0 |  0 |   0 |   0 | 8.000000e+00 | 8.000000e+00 |   0.00%|  99.93%

SCIP Status        : problem is solved [optimal solution found]
Solving Time (sec) : 5.89
Solving Nodes      : 23
Primal Bound       : +8.00000000000000e+00 (4 solutions)
Dual Bound         : +8.00000000000000e+00
Gap                : 0.00 %
Running with parallel: False bidir: True symbreak: True
Number of Nodes:  48
48.03512008101852% holds
starting cheapest insertion heuristic
Heuristic without TSP improvement:  10
Heuristic without TSP improvement time:  0.1
Heuristic Sol:  9
Heuristic total time:  0.1
[[0, 33, 46, 38], [12, 39, 22, 5, 6, 9, 8], [47, 16, 25, 24, 31, 40, 13, 36, 3], [45, 37, 34, 21, 7], [44, 15, 18, 19, 2, 1, 14, 29], [43, 42, 26], [41, 32, 30, 27], [35, 11, 17, 23, 4], [28, 10, 20]]
Instance path:  /home/htc/mghannam/SCRATCH/lccp-rust/data/t84_gr48.npcc
Timelimit:  7200
Heuristic without TSP improvement:  10
Heuristic without TSP improvement time:  0.1
Heuristic Sol:  9
Heuristic total time:  0.3
at 1 zero_duals: 39
at1, LP obj: 9.0 n_added_paths: 407
at 1 zero_duals: 27
at1, LP obj: 9.0 n_added_paths: 131
at 1 zero_duals: 11
at1, LP obj: 9.0 n_added_paths: 321
at 1 zero_duals: 10
at1, LP obj: 8.667808219178083 n_added_paths: 435
at 1 zero_duals: 8
at1, LP obj: 8.021190068493151 n_added_paths: 175
at 1 zero_duals: 16
at1, LP obj: 7.701612903225806 n_added_paths: 30
at 1 zero_duals: 8
at1, LP obj: 7.65625 n_added_paths: 27
at 1 zero_duals: 4
at1, LP obj: 7.634110787172013 n_added_paths: 25
at 1 zero_duals: 3
Switching to elementary pricing
at1, LP obj: 7.604166666666667 n_added_paths: 8
updated lowerbound from 1.0 to 8
Gap too small = 0, stopping pricing with lb = 8
Gap too small = 0, stopping pricing with lb = 8
Gap too small = 0, stopping pricing with lb = 8
Gap too small = 0, stopping pricing with lb = 8
Gap too small = 0, stopping pricing with lb = 8
Gap too small = 0, stopping pricing with lb = 8
at 12 zero_duals: 4
Switching to elementary pricing
at12, LP obj: 8.050666666666666 n_added_paths: 221
Gap too small = 0, stopping pricing with lb = 8
Gap too small = 0, stopping pricing with lb = 8
Gap too small = 0, stopping pricing with lb = 8
Gap too small = 0, stopping pricing with lb = 8
Gap too small = 0, stopping pricing with lb = 8
at 19 zero_duals: 7
Switching to elementary pricing
at19, LP obj: 8.340807174887892 n_added_paths: 131
Gap too small = 0, stopping pricing with lb = 8
Gap too small = 0, stopping pricing with lb = 8
Gap too small = 0, stopping pricing with lb = 8
Gap too small = 0, stopping pricing with lb = 8
Gap too small = 0, stopping pricing with lb = 8
Gap too small = 0, stopping pricing with lb = 8
Gap too small = 0, stopping pricing with lb = 8
Gap too small = 0, stopping pricing with lb = 8
Gap too small = 0, stopping pricing with lb = 8
at 40 zero_duals: 7
Switching to elementary pricing
at40, LP obj: 8.2875 n_added_paths: 231
Gap too small = 0, stopping pricing with lb = 8
Gap too small = 0, stopping pricing with lb = 8
Best solution found:
[45, 34, 37, 28, 30, 45] 1.0 1.0000000000000004
checking cycle [45, 34, 37, 28, 30, 45]
[45, 34, 37, 28, 30, 45] 677 636
[47, 41, 27, 32, 16, 25, 47] 1.0 1.0000000000000004
checking cycle [47, 41, 27, 32, 16, 25, 47]
[47, 41, 27, 32, 16, 25, 47] 636 635
[46, 38, 33, 20, 10, 46] 1.0 1.0000000000000004
checking cycle [46, 38, 33, 20, 10, 46]
[46, 38, 33, 20, 10, 46] 651 616
[21, 7, 19, 15, 1, 2, 9, 21] 1.0 1.000000000000001
checking cycle [21, 7, 19, 15, 1, 2, 9, 21]
[21, 7, 19, 15, 1, 2, 9, 21] 1048 913
[36, 3, 0, 24, 13, 36] 1.0 1.0000000000000009
checking cycle [36, 3, 0, 24, 13, 36]
[36, 3, 0, 24, 13, 36] 861 847
[44, 18, 43, 31, 40, 26, 42, 44] 1.0 1.0000000000000013
checking cycle [44, 18, 43, 31, 40, 26, 42, 44]
[44, 18, 43, 31, 40, 26, 42, 44] 748 735
[29, 14, 6, 5, 4, 23, 17, 11, 29] 1.0 1.0
checking cycle [29, 14, 6, 5, 4, 23, 17, 11, 29]
[29, 14, 6, 5, 4, 23, 17, 11, 29] 967 884
[39, 35, 22, 8, 12, 39] 1.0 1.0
checking cycle [39, 35, 22, 8, 12, 39]
[39, 35, 22, 8, 12, 39] 819 662
